sat
(
  (define-fun M () String
    "")
  (define-fun I () String
    "")
  (define-fun J () String
    "aa")
  (define-fun Q () String
    "ab")
  (define-fun L () String
    "")
  (define-fun P () String
    "abbaa")
  (define-fun H () String
    "")
  (define-fun N () String
    "a")
)
